
Log started (V11.0.0) Wed May 14 17:25:19 2008

Tried aggregator 1 time.
Reduced MIP has 150 rows, 5001 columns, and 10050 nonzeros.
Presolve time =    0.03 sec.
Clique table members: 100.
MIP emphasis: balance optimality and feasibility.
MIP search method: dynamic search.
Parallel mode: none, using 1 thread.
Root relaxation solution time =    0.17 sec.

        Nodes                                         Cuts/
   Node  Left     Objective  IInf  Best Integer     Best Node    ItCnt     Gap

*     0+    0                         4109.0000       56.8859      613   98.62%
*     0+    0                          108.0000       56.8859      613   47.33%
      0     0       57.4512    91      108.0000      Fract: 2      625   46.80%
*     0+    0                           98.0000       57.4512      625   41.38%
      0     0       63.6374    87       98.0000      Cuts: 42      837   35.06%
*     0+    0                           92.0000       63.6374      837   30.83%
      0     0       63.9361    84       92.0000      Cuts: 13      921   30.50%
*     0+    0                           91.0000       63.9361      921   29.74%
      0     0       64.0199    86       91.0000      Cuts: 10      974   29.65%
*     0+    0                           89.0000       64.0199      974   28.07%
      0     0       64.1143    86       89.0000       Cuts: 6     1000   27.96%
*     0+    0                           88.0000       64.1143     1000   27.14%
      0     0       64.1167    89       88.0000       Cuts: 4     1019   27.14%
*     0+    0                           87.0000       64.1167     1019   26.30%
      0     0       64.1167    98       87.0000       Cuts: 5     1030   26.30%
*     0+    0                           86.0000       64.1167     1030   25.45%
*     0+    0                           83.0000       64.1167     1030   22.75%
*     0+    0                           81.0000       64.1167     1030   20.84%
*     0+    0                           80.0000       64.1167     1030   19.85%
*     0+    0                           77.0000       64.1167     1030   16.73%
*     0+    0                           76.0000       64.1167     1030   15.64%

Repeating presolve.
Tried aggregator 1 time.
MIP Presolve eliminated 12 rows and 1619 columns.
MIP Presolve modified 1058 coefficients.
Reduced MIP has 138 rows, 3382 columns, and 6800 nonzeros.
Tried aggregator 1 time.
Represolve time =    0.17 sec.
Clique table members: 267.
MIP emphasis: balance optimality and feasibility.
MIP search method: dynamic search.
Parallel mode: none, using 1 thread.
Root relaxation solution time =    0.08 sec.

        Nodes                                         Cuts/
   Node  Left     Objective  IInf  Best Integer     Best Node    ItCnt     Gap

      0     0       65.8486    80       76.0000       65.8486      539   13.36%
      0     2       65.8486    80       76.0000       65.8486      539   13.36%
    100    99       68.0000    44       76.0000       66.0000     1467   13.16%
    200   189       72.0000    25       76.0000       66.0000     2800   13.16%
    300   262       73.9199    20       76.0000       66.0000     4184   13.16%
    400   344       75.0000    12       76.0000       66.0000     5191   13.16%
    500   444       75.0000    11       76.0000       66.0000     6536   13.16%
*   531+  316                           75.0000       71.2094     7963    5.05%
*   531+  210                           74.0000       71.2094     7963    3.77%
    600   225       73.0000    36       74.0000       72.0000     9067    2.70%

Cover cuts applied:  37
Implied bound cuts applied:  2
Mixed integer rounding cuts applied:  24

Solution pool: 16 solutions saved.

MIP - Integer optimal solution:  Objective = 7.4000000000e+001
Solution time =    9.45 sec.  Iterations = 12714  Nodes = 692 (93)


Incumbent solution
Variable Name           Solution Value
Cmax                         74.000000
X_1_40                        1.000000
X_2_5                         1.000000
X_3_12                        1.000000
X_4_3                         1.000000
X_5_18                        1.000000
X_6_29                        1.000000
X_7_18                        1.000000
X_8_20                        1.000000
X_9_1                         1.000000
X_10_1                        1.000000
X_11_40                       1.000000
X_12_5                        1.000000
X_13_43                       1.000000
X_14_14                       1.000000
X_15_1                        1.000000
X_16_18                       1.000000
X_17_9                        1.000000
X_18_3                        1.000000
X_19_18                       1.000000
X_20_5                        1.000000
X_21_1                        1.000000
X_22_19                       1.000000
X_23_7                        1.000000
X_24_10                       1.000000
X_25_46                       1.000000
X_26_41                       1.000000
X_27_17                       1.000000
X_28_9                        1.000000
X_29_47                       1.000000
X_30_9                        1.000000
X_31_47                       1.000000
X_32_47                       1.000000
X_33_39                       1.000000
X_34_1                        1.000000
X_35_2                        1.000000
X_36_47                       1.000000
X_37_4                        1.000000
X_38_1                        1.000000
X_39_1                        1.000000
X_40_50                       1.000000
X_41_3                        1.000000
X_42_3                        1.000000
X_43_5                        1.000000
X_44_28                       1.000000
X_45_39                       1.000000
X_46_41                       1.000000
X_47_15                       1.000000
X_48_9                        1.000000
X_49_47                       1.000000
X_50_17                       1.000000
X_51_6                        1.000000
X_52_1                        1.000000
X_53_30                       1.000000
X_54_5                        1.000000
X_55_47                       1.000000
X_56_49                       1.000000
X_57_3                        1.000000
X_58_9                        1.000000
X_59_1                        1.000000
X_60_18                       1.000000
X_61_9                        1.000000
X_62_46                       1.000000
X_63_47                       1.000000
X_64_46                       1.000000
X_65_37                       1.000000
X_66_1                        1.000000
X_67_5                        1.000000
X_68_1                        1.000000
X_69_12                       1.000000
X_70_31                       1.000000
X_71_27                       1.000000
X_72_13                       1.000000
X_73_1                        1.000000
X_74_8                        1.000000
X_75_40                       1.000000
X_76_7                        1.000000
X_77_1                        1.000000
X_78_3                        1.000000
X_79_39                       1.000000
X_80_25                       1.000000
X_81_11                       1.000000
X_82_35                       1.000000
X_83_18                       1.000000
X_84_28                       1.000000
X_85_5                        1.000000
X_86_47                       1.000000
X_87_28                       1.000000
X_88_3                        1.000000
X_89_50                       1.000000
X_90_17                       1.000000
X_91_3                        1.000000
X_92_28                       1.000000
X_93_25                       1.000000
X_94_1                        1.000000
X_95_48                       1.000000
X_96_34                       1.000000
X_97_32                       1.000000
X_98_17                       1.000000
X_99_1                        1.000000
X_100_48                      1.000000
All other variables in the range 1-5001 are 0.
